# Solution for model continuous_rest_k_medians
# Objective value = 21788
x[0,0] 0
x[0,1] 1
x[0,2] 0
x[1,0] 0
x[1,1] 1
x[1,2] 0
x[2,0] 0
x[2,1] 1
x[2,2] 0
x[3,0] 0
x[3,1] 1
x[3,2] 0
x[4,0] 0
x[4,1] 1
x[4,2] 0
x[5,0] 0
x[5,1] 1
x[5,2] 0
x[6,0] 0
x[6,1] 1
x[6,2] 0
x[7,0] 0
x[7,1] 1
x[7,2] 0
x[8,0] 0
x[8,1] 1
x[8,2] 0
x[9,0] 0
x[9,1] 1
x[9,2] 0
x[10,0] 0
x[10,1] 1
x[10,2] 0
x[11,0] 0
x[11,1] 1
x[11,2] 0
x[12,0] 0
x[12,1] 1
x[12,2] 0
x[13,0] 0
x[13,1] 1
x[13,2] 0
x[14,0] 0
x[14,1] 1
x[14,2] 0
x[15,0] 0
x[15,1] 1
x[15,2] 0
x[16,0] 0
x[16,1] 1
x[16,2] 0
x[17,0] 0
x[17,1] 1
x[17,2] 0
x[18,0] 0
x[18,1] 1
x[18,2] 0
x[19,0] 0
x[19,1] 1
x[19,2] 0
x[20,0] 0
x[20,1] 1
x[20,2] 0
x[21,0] 0
x[21,1] 1
x[21,2] 0
x[22,0] 0
x[22,1] 1
x[22,2] 0
x[23,0] 0
x[23,1] 1
x[23,2] 0
x[24,0] 0
x[24,1] 1
x[24,2] 0
x[25,0] 0
x[25,1] 1
x[25,2] 0
x[26,0] 0
x[26,1] 1
x[26,2] 0
x[27,0] 0
x[27,1] 1
x[27,2] 0
x[28,0] 0
x[28,1] 1
x[28,2] 0
x[29,0] 0
x[29,1] 1
x[29,2] 0
x[30,0] 0
x[30,1] 1
x[30,2] 0
x[31,0] 0
x[31,1] 1
x[31,2] 0
x[32,0] 0
x[32,1] 1
x[32,2] 0
x[33,0] 0
x[33,1] 1
x[33,2] 0
x[34,0] 0
x[34,1] 1
x[34,2] 0
x[35,0] 0
x[35,1] 1
x[35,2] 0
x[36,0] 0
x[36,1] 1
x[36,2] 0
x[37,0] 0
x[37,1] 1
x[37,2] 0
x[38,0] 0
x[38,1] 1
x[38,2] 0
x[39,0] 0
x[39,1] 1
x[39,2] 0
x[40,0] 0
x[40,1] 1
x[40,2] 0
x[41,0] 0
x[41,1] 1
x[41,2] 0
x[42,0] 0
x[42,1] 1
x[42,2] 0
x[43,0] 0
x[43,1] 1
x[43,2] 0
x[44,0] 0
x[44,1] 1
x[44,2] 0
x[45,0] 0
x[45,1] 1
x[45,2] 0
x[46,0] 0
x[46,1] 1
x[46,2] 0
x[47,0] 0
x[47,1] 1
x[47,2] 0
x[48,0] 0
x[48,1] 1
x[48,2] 0
x[49,0] 0
x[49,1] 1
x[49,2] 0
x[50,0] 0
x[50,1] 1
x[50,2] 0
x[51,0] 0
x[51,1] 1
x[51,2] 0
x[52,0] 0
x[52,1] 1
x[52,2] 0
x[53,0] 0
x[53,1] 1
x[53,2] 0
x[54,0] 0
x[54,1] 1
x[54,2] 0
x[55,0] 0
x[55,1] 1
x[55,2] 0
x[56,0] 0
x[56,1] 1
x[56,2] 0
x[57,0] 0
x[57,1] 1
x[57,2] 0
x[58,0] 0
x[58,1] 1
x[58,2] 0
x[59,0] 0
x[59,1] 1
x[59,2] 0
x[60,0] 0
x[60,1] 1
x[60,2] 0
x[61,0] 0
x[61,1] 1
x[61,2] 0
x[62,0] 0
x[62,1] 1
x[62,2] 0
x[63,0] 0
x[63,1] 1
x[63,2] 0
x[64,0] 0
x[64,1] 1
x[64,2] 0
x[65,0] 0
x[65,1] 1
x[65,2] 0
x[66,0] 0
x[66,1] 1
x[66,2] 0
x[67,0] 0
x[67,1] 1
x[67,2] 0
x[68,0] 0
x[68,1] 1
x[68,2] 0
x[69,0] 0
x[69,1] 1
x[69,2] 0
x[70,0] 0
x[70,1] 1
x[70,2] 0
x[71,0] 0
x[71,1] 1
x[71,2] 0
x[72,0] 0
x[72,1] 1
x[72,2] 0
x[73,0] 0
x[73,1] 1
x[73,2] 0
x[74,0] 0
x[74,1] 1
x[74,2] 0
x[75,0] 0
x[75,1] 1
x[75,2] 0
x[76,0] 0
x[76,1] 1
x[76,2] 0
x[77,0] 0
x[77,1] 1
x[77,2] 0
x[78,0] 0
x[78,1] 1
x[78,2] 0
x[79,0] 0
x[79,1] 1
x[79,2] 0
x[80,0] 0
x[80,1] 1
x[80,2] 0
x[81,0] 0
x[81,1] 1
x[81,2] 0
x[82,0] 0
x[82,1] 1
x[82,2] 0
x[83,0] 0
x[83,1] 1
x[83,2] 0
x[84,0] 0
x[84,1] 1
x[84,2] 0
x[85,0] 0
x[85,1] 1
x[85,2] 0
x[86,0] 0
x[86,1] 1
x[86,2] 0
x[87,0] 0
x[87,1] 1
x[87,2] 0
x[88,0] 1
x[88,1] 0
x[88,2] 0
x[89,0] 0
x[89,1] 1
x[89,2] 0
x[90,0] 0
x[90,1] 0
x[90,2] 1
x[91,0] 0
x[91,1] 0
x[91,2] 1
x[92,0] 0
x[92,1] 0
x[92,2] 1
x[93,0] 0
x[93,1] 0
x[93,2] 1
x[94,0] 0
x[94,1] 0
x[94,2] 1
x[95,0] 0
x[95,1] 0
x[95,2] 1
x[96,0] 0
x[96,1] 1
x[96,2] 0
x[97,0] 0
x[97,1] 1
x[97,2] 0
x[98,0] 0
x[98,1] 1
x[98,2] 0
x[99,0] 0
x[99,1] 1
x[99,2] 0
x[100,0] 0
x[100,1] 1
x[100,2] 0
x[101,0] 0
x[101,1] 1
x[101,2] 0
x[102,0] 0
x[102,1] 1
x[102,2] 0
x[103,0] 0
x[103,1] 1
x[103,2] 0
x[104,0] 0
x[104,1] 1
x[104,2] 0
x[105,0] 1
x[105,1] 0
x[105,2] 0
x[106,0] 0
x[106,1] 1
x[106,2] 0
x[107,0] 0
x[107,1] 1
x[107,2] 0
x[108,0] 0
x[108,1] 1
x[108,2] 0
x[109,0] 0
x[109,1] 0
x[109,2] 1
x[110,0] 1
x[110,1] 0
x[110,2] 0
x[111,0] 1
x[111,1] 0
x[111,2] 0
x[112,0] 1
x[112,1] 0
x[112,2] 0
x[113,0] 0
x[113,1] 1
x[113,2] 0
x[114,0] 0
x[114,1] 1
x[114,2] 0
x[115,0] 0
x[115,1] 1
x[115,2] 0
x[116,0] 0
x[116,1] 1
x[116,2] 0
x[117,0] 0
x[117,1] 0
x[117,2] 1
x[118,0] 0
x[118,1] 1
x[118,2] 0
x[119,0] 0
x[119,1] 1
x[119,2] 0
x[120,0] 0
x[120,1] 1
x[120,2] 0
x[121,0] 0
x[121,1] 1
x[121,2] 0
x[122,0] 0
x[122,1] 1
x[122,2] 0
x[123,0] 0
x[123,1] 0
x[123,2] 1
x[124,0] 0
x[124,1] 0
x[124,2] 1
x[125,0] 0
x[125,1] 0
x[125,2] 1
x[126,0] 0
x[126,1] 1
x[126,2] 0
x[127,0] 0
x[127,1] 1
x[127,2] 0
x[128,0] 0
x[128,1] 1
x[128,2] 0
x[129,0] 0
x[129,1] 1
x[129,2] 0
x[130,0] 0
x[130,1] 1
x[130,2] 0
x[131,0] 0
x[131,1] 1
x[131,2] 0
x[132,0] 0
x[132,1] 1
x[132,2] 0
x[133,0] 0
x[133,1] 1
x[133,2] 0
x[134,0] 0
x[134,1] 1
x[134,2] 0
x[135,0] 0
x[135,1] 1
x[135,2] 0
x[136,0] 1
x[136,1] 0
x[136,2] 0
x[137,0] 0
x[137,1] 1
x[137,2] 0
x[138,0] 0
x[138,1] 1
x[138,2] 0
x[139,0] 1
x[139,1] 0
x[139,2] 0
x[140,0] 0
x[140,1] 1
x[140,2] 0
x[141,0] 0
x[141,1] 1
x[141,2] 0
x[142,0] 0
x[142,1] 1
x[142,2] 0
x[143,0] 0
x[143,1] 0
x[143,2] 1
x[144,0] 0
x[144,1] 1
x[144,2] 0
x[145,0] 0
x[145,1] 1
x[145,2] 0
x[146,0] 0
x[146,1] 1
x[146,2] 0
x[147,0] 0
x[147,1] 1
x[147,2] 0
x[148,0] 0
x[148,1] 1
x[148,2] 0
x[149,0] 0
x[149,1] 1
x[149,2] 0
x[150,0] 0
x[150,1] 1
x[150,2] 0
x[151,0] 0
x[151,1] 1
x[151,2] 0
x[152,0] 0
x[152,1] 1
x[152,2] 0
x[153,0] 0
x[153,1] 1
x[153,2] 0
x[154,0] 0
x[154,1] 1
x[154,2] 0
x[155,0] 0
x[155,1] 1
x[155,2] 0
x[156,0] 0
x[156,1] 1
x[156,2] 0
x[157,0] 0
x[157,1] 1
x[157,2] 0
x[158,0] 0
x[158,1] 1
x[158,2] 0
x[159,0] 0
x[159,1] 1
x[159,2] 0
x[160,0] 0
x[160,1] 1
x[160,2] 0
x[161,0] 0
x[161,1] 1
x[161,2] 0
x[162,0] 0
x[162,1] 1
x[162,2] 0
x[163,0] 0
x[163,1] 1
x[163,2] 0
x[164,0] 0
x[164,1] 1
x[164,2] 0
x[165,0] 0
x[165,1] 1
x[165,2] 0
x[166,0] 0
x[166,1] 1
x[166,2] 0
x[167,0] 0
x[167,1] 1
x[167,2] 0
x[168,0] 0
x[168,1] 1
x[168,2] 0
x[169,0] 0
x[169,1] 1
x[169,2] 0
x[170,0] 0
x[170,1] 1
x[170,2] 0
x[171,0] 0
x[171,1] 1
x[171,2] 0
x[172,0] 0
x[172,1] 1
x[172,2] 0
x[173,0] 0
x[173,1] 1
x[173,2] 0
x[174,0] 0
x[174,1] 1
x[174,2] 0
x[175,0] 0
x[175,1] 1
x[175,2] 0
x[176,0] 0
x[176,1] 1
x[176,2] 0
x[177,0] 0
x[177,1] 1
x[177,2] 0
x[178,0] 0
x[178,1] 1
x[178,2] 0
x[179,0] 0
x[179,1] 1
x[179,2] 0
x[180,0] 0
x[180,1] 1
x[180,2] 0
x[181,0] 0
x[181,1] 1
x[181,2] 0
x[182,0] 0
x[182,1] 1
x[182,2] 0
x[183,0] 0
x[183,1] 1
x[183,2] 0
x[184,0] 0
x[184,1] 0
x[184,2] 1
x[185,0] 0
x[185,1] 1
x[185,2] 0
x[186,0] 0
x[186,1] 1
x[186,2] 0
x[187,0] 0
x[187,1] 1
x[187,2] 0
x[188,0] 0
x[188,1] 1
x[188,2] 0
x[189,0] 0
x[189,1] 0
x[189,2] 1
x[190,0] 0
x[190,1] 0
x[190,2] 1
x[191,0] 0
x[191,1] 0
x[191,2] 1
x[192,0] 0
x[192,1] 0
x[192,2] 1
x[193,0] 0
x[193,1] 0
x[193,2] 1
x[194,0] 0
x[194,1] 1
x[194,2] 0
x[195,0] 0
x[195,1] 0
x[195,2] 1
x[196,0] 1
x[196,1] 0
x[196,2] 0
x[197,0] 0
x[197,1] 1
x[197,2] 0
x[198,0] 0
x[198,1] 1
x[198,2] 0
x[199,0] 0
x[199,1] 1
x[199,2] 0
x[200,0] 1
x[200,1] 0
x[200,2] 0
x[201,0] 0
x[201,1] 1
x[201,2] 0
x[202,0] 0
x[202,1] 1
x[202,2] 0
x[203,0] 0
x[203,1] 1
x[203,2] 0
x[204,0] 0
x[204,1] 1
x[204,2] 0
x[205,0] 0
x[205,1] 1
x[205,2] 0
x[206,0] 0
x[206,1] 1
x[206,2] 0
x[207,0] 0
x[207,1] 1
x[207,2] 0
x[208,0] 0
x[208,1] 0
x[208,2] 1
x[209,0] 0
x[209,1] 1
x[209,2] 0
x[210,0] 0
x[210,1] 1
x[210,2] 0
x[211,0] 0
x[211,1] 1
x[211,2] 0
x[212,0] 0
x[212,1] 1
x[212,2] 0
x[213,0] 0
x[213,1] 0
x[213,2] 1
x[214,0] 0
x[214,1] 0
x[214,2] 1
x[215,0] 0
x[215,1] 1
x[215,2] 0
x[216,0] 0
x[216,1] 1
x[216,2] 0
x[217,0] 0
x[217,1] 1
x[217,2] 0
x[218,0] 0
x[218,1] 1
x[218,2] 0
x[219,0] 0
x[219,1] 1
x[219,2] 0
x[220,0] 0
x[220,1] 0
x[220,2] 1
x[221,0] 0
x[221,1] 0
x[221,2] 1
x[222,0] 0
x[222,1] 0
x[222,2] 1
x[223,0] 0
x[223,1] 0
x[223,2] 1
x[224,0] 0
x[224,1] 0
x[224,2] 1
x[225,0] 0
x[225,1] 0
x[225,2] 1
x[226,0] 0
x[226,1] 0
x[226,2] 1
x[227,0] 0
x[227,1] 0
x[227,2] 1
x[228,0] 0
x[228,1] 0
x[228,2] 1
x[229,0] 0
x[229,1] 0
x[229,2] 1
x[230,0] 0
x[230,1] 1
x[230,2] 0
x[231,0] 0
x[231,1] 1
x[231,2] 0
x[232,0] 0
x[232,1] 0
x[232,2] 1
x[233,0] 0
x[233,1] 0
x[233,2] 1
x[234,0] 0
x[234,1] 0
x[234,2] 1
x[235,0] 0
x[235,1] 0
x[235,2] 1
x[236,0] 0
x[236,1] 1
x[236,2] 0
x[237,0] 0
x[237,1] 0
x[237,2] 1
x[238,0] 0
x[238,1] 0
x[238,2] 1
x[239,0] 0
x[239,1] 0
x[239,2] 1
x[240,0] 0
x[240,1] 0
x[240,2] 1
x[241,0] 0
x[241,1] 0
x[241,2] 1
x[242,0] 0
x[242,1] 0
x[242,2] 1
x[243,0] 0
x[243,1] 0
x[243,2] 1
x[244,0] 0
x[244,1] 0
x[244,2] 1
x[245,0] 0
x[245,1] 0
x[245,2] 1
x[246,0] 0
x[246,1] 0
x[246,2] 1
x[247,0] 0
x[247,1] 0
x[247,2] 1
x[248,0] 0
x[248,1] 0
x[248,2] 1
x[249,0] 0
x[249,1] 0
x[249,2] 1
x[250,0] 1
x[250,1] 0
x[250,2] 0
x[251,0] 1
x[251,1] 0
x[251,2] 0
x[252,0] 0
x[252,1] 0
x[252,2] 1
x[253,0] 0
x[253,1] 0
x[253,2] 1
x[254,0] 0
x[254,1] 0
x[254,2] 1
x[255,0] 0
x[255,1] 0
x[255,2] 1
x[256,0] 0
x[256,1] 0
x[256,2] 1
x[257,0] 0
x[257,1] 0
x[257,2] 1
x[258,0] 0
x[258,1] 0
x[258,2] 1
x[259,0] 0
x[259,1] 0
x[259,2] 1
x[260,0] 0
x[260,1] 0
x[260,2] 1
x[261,0] 0
x[261,1] 0
x[261,2] 1
x[262,0] 0
x[262,1] 0
x[262,2] 1
x[263,0] 0
x[263,1] 0
x[263,2] 1
x[264,0] 0
x[264,1] 0
x[264,2] 1
x[265,0] 0
x[265,1] 0
x[265,2] 1
x[266,0] 0
x[266,1] 0
x[266,2] 1
x[267,0] 0
x[267,1] 0
x[267,2] 1
x[268,0] 0
x[268,1] 0
x[268,2] 1
x[269,0] 0
x[269,1] 0
x[269,2] 1
x[270,0] 0
x[270,1] 0
x[270,2] 1
x[271,0] 0
x[271,1] 0
x[271,2] 1
x[272,0] 0
x[272,1] 0
x[272,2] 1
x[273,0] 0
x[273,1] 0
x[273,2] 1
x[274,0] 0
x[274,1] 0
x[274,2] 1
x[275,0] 0
x[275,1] 0
x[275,2] 1
x[276,0] 0
x[276,1] 0
x[276,2] 1
x[277,0] 0
x[277,1] 0
x[277,2] 1
x[278,0] 0
x[278,1] 0
x[278,2] 1
x[279,0] 0
x[279,1] 0
x[279,2] 1
x[280,0] 0
x[280,1] 0
x[280,2] 1
x[281,0] 0
x[281,1] 0
x[281,2] 1
x[282,0] 0
x[282,1] 0
x[282,2] 1
x[283,0] 0
x[283,1] 0
x[283,2] 1
x[284,0] 0
x[284,1] 0
x[284,2] 1
x[285,0] 0
x[285,1] 0
x[285,2] 1
x[286,0] 0
x[286,1] 0
x[286,2] 1
x[287,0] 0
x[287,1] 0
x[287,2] 1
x[288,0] 0
x[288,1] 0
x[288,2] 1
x[289,0] 0
x[289,1] 0
x[289,2] 1
x[290,0] 0
x[290,1] 0
x[290,2] 1
x[291,0] 0
x[291,1] 0
x[291,2] 1
x[292,0] 0
x[292,1] 0
x[292,2] 1
x[293,0] 0
x[293,1] 0
x[293,2] 1
x[294,0] 0
x[294,1] 0
x[294,2] 1
x[295,0] 0
x[295,1] 0
x[295,2] 1
x[296,0] 0
x[296,1] 0
x[296,2] 1
x[297,0] 0
x[297,1] 0
x[297,2] 1
x[298,0] 0
x[298,1] 0
x[298,2] 1
x[299,0] 0
x[299,1] 0
x[299,2] 1
x[300,0] 0
x[300,1] 0
x[300,2] 1
x[301,0] 0
x[301,1] 0
x[301,2] 1
x[302,0] 0
x[302,1] 0
x[302,2] 1
x[303,0] 0
x[303,1] 0
x[303,2] 1
x[304,0] 0
x[304,1] 0
x[304,2] 1
x[305,0] 0
x[305,1] 0
x[305,2] 1
x[306,0] 0
x[306,1] 0
x[306,2] 1
x[307,0] 0
x[307,1] 0
x[307,2] 1
x[308,0] 0
x[308,1] 0
x[308,2] 1
x[309,0] 0
x[309,1] 0
x[309,2] 1
x[310,0] 0
x[310,1] 0
x[310,2] 1
x[311,0] 0
x[311,1] 0
x[311,2] 1
x[312,0] 0
x[312,1] 0
x[312,2] 1
x[313,0] 1
x[313,1] 0
x[313,2] 0
x[314,0] 1
x[314,1] 0
x[314,2] 0
x[315,0] 0
x[315,1] 0
x[315,2] 1
x[316,0] 0
x[316,1] 0
x[316,2] 1
x[317,0] 0
x[317,1] 0
x[317,2] 1
x[318,0] 0
x[318,1] 0
x[318,2] 1
x[319,0] 0
x[319,1] 0
x[319,2] 1
x[320,0] 1
x[320,1] 0
x[320,2] 0
x[321,0] 1
x[321,1] 0
x[321,2] 0
x[322,0] 0
x[322,1] 1
x[322,2] 0
x[323,0] 0
x[323,1] 1
x[323,2] 0
x[324,0] 0
x[324,1] 1
x[324,2] 0
x[325,0] 0
x[325,1] 1
x[325,2] 0
x[326,0] 0
x[326,1] 1
x[326,2] 0
x[327,0] 1
x[327,1] 0
x[327,2] 0
x[328,0] 1
x[328,1] 0
x[328,2] 0
x[329,0] 1
x[329,1] 0
x[329,2] 0
x[330,0] 1
x[330,1] 0
x[330,2] 0
x[331,0] 1
x[331,1] 0
x[331,2] 0
x[332,0] 0
x[332,1] 1
x[332,2] 0
x[333,0] 0
x[333,1] 1
x[333,2] 0
x[334,0] 1
x[334,1] 0
x[334,2] 0
x[335,0] 1
x[335,1] 0
x[335,2] 0
x[336,0] 1
x[336,1] 0
x[336,2] 0
x[337,0] 1
x[337,1] 0
x[337,2] 0
x[338,0] 1
x[338,1] 0
x[338,2] 0
x[339,0] 1
x[339,1] 0
x[339,2] 0
x[340,0] 1
x[340,1] 0
x[340,2] 0
x[341,0] 1
x[341,1] 0
x[341,2] 0
x[342,0] 0
x[342,1] 1
x[342,2] 0
x[343,0] 1
x[343,1] 0
x[343,2] 0
x[344,0] 1
x[344,1] 0
x[344,2] 0
x[345,0] 0
x[345,1] 1
x[345,2] 0
x[346,0] 1
x[346,1] 0
x[346,2] 0
x[347,0] 1
x[347,1] 0
x[347,2] 0
x[348,0] 0
x[348,1] 0
x[348,2] 1
x[349,0] 1
x[349,1] 0
x[349,2] 0
x[350,0] 1
x[350,1] 0
x[350,2] 0
x[351,0] 1
x[351,1] 0
x[351,2] 0
x[352,0] 1
x[352,1] 0
x[352,2] 0
x[353,0] 0
x[353,1] 0
x[353,2] 1
x[354,0] 1
x[354,1] 0
x[354,2] 0
x[355,0] 0
x[355,1] 0
x[355,2] 1
x[356,0] 0
x[356,1] 0
x[356,2] 1
x[357,0] 0
x[357,1] 0
x[357,2] 1
x[358,0] 1
x[358,1] 0
x[358,2] 0
x[359,0] 1
x[359,1] 0
x[359,2] 0
x[360,0] 1
x[360,1] 0
x[360,2] 0
x[361,0] 1
x[361,1] 0
x[361,2] 0
x[362,0] 1
x[362,1] 0
x[362,2] 0
x[363,0] 1
x[363,1] 0
x[363,2] 0
x[364,0] 0
x[364,1] 1
x[364,2] 0
x[365,0] 0
x[365,1] 1
x[365,2] 0
x[366,0] 0
x[366,1] 1
x[366,2] 0
x[367,0] 1
x[367,1] 0
x[367,2] 0
x[368,0] 1
x[368,1] 0
x[368,2] 0
x[369,0] 0
x[369,1] 0
x[369,2] 1
x[370,0] 1
x[370,1] 0
x[370,2] 0
x[371,0] 1
x[371,1] 0
x[371,2] 0
x[372,0] 0
x[372,1] 0
x[372,2] 1
x[373,0] 1
x[373,1] 0
x[373,2] 0
x[374,0] 1
x[374,1] 0
x[374,2] 0
x[375,0] 1
x[375,1] 0
x[375,2] 0
x[376,0] 1
x[376,1] 0
x[376,2] 0
x[377,0] 1
x[377,1] 0
x[377,2] 0
x[378,0] 1
x[378,1] 0
x[378,2] 0
x[379,0] 0
x[379,1] 0
x[379,2] 1
x[380,0] 0
x[380,1] 0
x[380,2] 1
x[381,0] 0
x[381,1] 0
x[381,2] 1
x[382,0] 1
x[382,1] 0
x[382,2] 0
x[383,0] 1
x[383,1] 0
x[383,2] 0
x[384,0] 1
x[384,1] 0
x[384,2] 0
x[385,0] 1
x[385,1] 0
x[385,2] 0
x[386,0] 1
x[386,1] 0
x[386,2] 0
x[387,0] 1
x[387,1] 0
x[387,2] 0
x[388,0] 1
x[388,1] 0
x[388,2] 0
x[389,0] 1
x[389,1] 0
x[389,2] 0
x[390,0] 1
x[390,1] 0
x[390,2] 0
x[391,0] 1
x[391,1] 0
x[391,2] 0
x[392,0] 1
x[392,1] 0
x[392,2] 0
x[393,0] 1
x[393,1] 0
x[393,2] 0
x[394,0] 1
x[394,1] 0
x[394,2] 0
x[395,0] 1
x[395,1] 0
x[395,2] 0
x[396,0] 1
x[396,1] 0
x[396,2] 0
x[397,0] 1
x[397,1] 0
x[397,2] 0
x[398,0] 1
x[398,1] 0
x[398,2] 0
x[399,0] 1
x[399,1] 0
x[399,2] 0
x[400,0] 1
x[400,1] 0
x[400,2] 0
x[401,0] 1
x[401,1] 0
x[401,2] 0
x[402,0] 1
x[402,1] 0
x[402,2] 0
x[403,0] 1
x[403,1] 0
x[403,2] 0
x[404,0] 1
x[404,1] 0
x[404,2] 0
x[405,0] 1
x[405,1] 0
x[405,2] 0
x[406,0] 1
x[406,1] 0
x[406,2] 0
x[407,0] 1
x[407,1] 0
x[407,2] 0
x[408,0] 1
x[408,1] 0
x[408,2] 0
x[409,0] 1
x[409,1] 0
x[409,2] 0
x[410,0] 0
x[410,1] 1
x[410,2] 0
x[411,0] 0
x[411,1] 1
x[411,2] 0
x[412,0] 0
x[412,1] 1
x[412,2] 0
x[413,0] 0
x[413,1] 1
x[413,2] 0
x[414,0] 0
x[414,1] 0
x[414,2] 1
x[415,0] 0
x[415,1] 1
x[415,2] 0
x[416,0] 0
x[416,1] 1
x[416,2] 0
x[417,0] 0
x[417,1] 1
x[417,2] 0
x[418,0] 0
x[418,1] 0
x[418,2] 1
x[419,0] 0
x[419,1] 0
x[419,2] 1
x[420,0] 0
x[420,1] 0
x[420,2] 1
x[421,0] 0
x[421,1] 0
x[421,2] 1
x[422,0] 1
x[422,1] 0
x[422,2] 0
x[423,0] 1
x[423,1] 0
x[423,2] 0
x[424,0] 1
x[424,1] 0
x[424,2] 0
x[425,0] 1
x[425,1] 0
x[425,2] 0
x[426,0] 1
x[426,1] 0
x[426,2] 0
x[427,0] 0
x[427,1] 0
x[427,2] 1
x[428,0] 1
x[428,1] 0
x[428,2] 0
x[429,0] 0
x[429,1] 0
x[429,2] 1
x[430,0] 1
x[430,1] 0
x[430,2] 0
x[431,0] 1
x[431,1] 0
x[431,2] 0
x[432,0] 0
x[432,1] 0
x[432,2] 1
x[433,0] 0
x[433,1] 0
x[433,2] 1
x[434,0] 0
x[434,1] 0
x[434,2] 1
x[435,0] 0
x[435,1] 0
x[435,2] 1
x[436,0] 0
x[436,1] 1
x[436,2] 0
x[437,0] 0
x[437,1] 1
x[437,2] 0
x[438,0] 0
x[438,1] 1
x[438,2] 0
x[439,0] 0
x[439,1] 1
x[439,2] 0
x[440,0] 0
x[440,1] 1
x[440,2] 0
x[441,0] 0
x[441,1] 1
x[441,2] 0
x[442,0] 0
x[442,1] 0
x[442,2] 1
x[443,0] 0
x[443,1] 0
x[443,2] 1
x[444,0] 0
x[444,1] 0
x[444,2] 1
x[445,0] 0
x[445,1] 1
x[445,2] 0
x[446,0] 0
x[446,1] 1
x[446,2] 0
x[447,0] 0
x[447,1] 0
x[447,2] 1
x[448,0] 0
x[448,1] 0
x[448,2] 1
x[449,0] 0
x[449,1] 0
x[449,2] 1
x[450,0] 0
x[450,1] 0
x[450,2] 1
x[451,0] 0
x[451,1] 0
x[451,2] 1
x[452,0] 0
x[452,1] 1
x[452,2] 0
x[453,0] 0
x[453,1] 0
x[453,2] 1
x[454,0] 0
x[454,1] 0
x[454,2] 1
x[455,0] 0
x[455,1] 0
x[455,2] 1
x[456,0] 0
x[456,1] 0
x[456,2] 1
x[457,0] 0
x[457,1] 0
x[457,2] 1
x[458,0] 0
x[458,1] 1
x[458,2] 0
x[459,0] 0
x[459,1] 0
x[459,2] 1
x[460,0] 0
x[460,1] 0
x[460,2] 1
x[461,0] 0
x[461,1] 0
x[461,2] 1
x[462,0] 0
x[462,1] 0
x[462,2] 1
x[463,0] 0
x[463,1] 0
x[463,2] 1
x[464,0] 0
x[464,1] 0
x[464,2] 1
x[465,0] 0
x[465,1] 0
x[465,2] 1
x[466,0] 0
x[466,1] 0
x[466,2] 1
x[467,0] 0
x[467,1] 0
x[467,2] 1
x[468,0] 0
x[468,1] 0
x[468,2] 1
x[469,0] 0
x[469,1] 0
x[469,2] 1
x[470,0] 0
x[470,1] 0
x[470,2] 1
x[471,0] 0
x[471,1] 0
x[471,2] 1
x[472,0] 0
x[472,1] 0
x[472,2] 1
x[473,0] 0
x[473,1] 0
x[473,2] 1
x[474,0] 0
x[474,1] 0
x[474,2] 1
x[475,0] 0
x[475,1] 0
x[475,2] 1
x[476,0] 0
x[476,1] 0
x[476,2] 1
x[477,0] 0
x[477,1] 0
x[477,2] 1
x[478,0] 0
x[478,1] 0
x[478,2] 1
x[479,0] 0
x[479,1] 0
x[479,2] 1
x[480,0] 0
x[480,1] 0
x[480,2] 1
x[481,0] 0
x[481,1] 0
x[481,2] 1
x[482,0] 0
x[482,1] 0
x[482,2] 1
x[483,0] 0
x[483,1] 0
x[483,2] 1
x[484,0] 0
x[484,1] 0
x[484,2] 1
x[485,0] 0
x[485,1] 0
x[485,2] 1
x[486,0] 0
x[486,1] 0
x[486,2] 1
x[487,0] 0
x[487,1] 0
x[487,2] 1
x[488,0] 0
x[488,1] 0
x[488,2] 1
x[489,0] 0
x[489,1] 0
x[489,2] 1
x[490,0] 0
x[490,1] 0
x[490,2] 1
x[491,0] 0
x[491,1] 0
x[491,2] 1
x[492,0] 0
x[492,1] 0
x[492,2] 1
x[493,0] 0
x[493,1] 0
x[493,2] 1
x[494,0] 0
x[494,1] 0
x[494,2] 1
x[495,0] 0
x[495,1] 0
x[495,2] 1
x[496,0] 0
x[496,1] 0
x[496,2] 1
x[497,0] 0
x[497,1] 0
x[497,2] 1
x[498,0] 0
x[498,1] 0
x[498,2] 1
x[499,0] 0
x[499,1] 0
x[499,2] 1
x[500,0] 0
x[500,1] 0
x[500,2] 1
x[501,0] 0
x[501,1] 0
x[501,2] 1
x[502,0] 1
x[502,1] 0
x[502,2] 0
x[503,0] 0
x[503,1] 0
x[503,2] 1
x[504,0] 0
x[504,1] 0
x[504,2] 1
x[505,0] 0
x[505,1] 0
x[505,2] 1
x[506,0] 0
x[506,1] 0
x[506,2] 1
x[507,0] 0
x[507,1] 0
x[507,2] 1
x[508,0] 0
x[508,1] 0
x[508,2] 1
x[509,0] 0
x[509,1] 0
x[509,2] 1
x[510,0] 1
x[510,1] 0
x[510,2] 0
x[511,0] 1
x[511,1] 0
x[511,2] 0
x[512,0] 1
x[512,1] 0
x[512,2] 0
x[513,0] 0
x[513,1] 0
x[513,2] 1
x[514,0] 0
x[514,1] 0
x[514,2] 1
x[515,0] 0
x[515,1] 0
x[515,2] 1
x[516,0] 0
x[516,1] 0
x[516,2] 1
x[517,0] 0
x[517,1] 0
x[517,2] 1
x[518,0] 0
x[518,1] 0
x[518,2] 1
x[519,0] 0
x[519,1] 0
x[519,2] 1
x[520,0] 0
x[520,1] 0
x[520,2] 1
x[521,0] 0
x[521,1] 0
x[521,2] 1
x[522,0] 0
x[522,1] 0
x[522,2] 1
x[523,0] 0
x[523,1] 0
x[523,2] 1
x[524,0] 0
x[524,1] 0
x[524,2] 1
x[525,0] 0
x[525,1] 0
x[525,2] 1
x[526,0] 0
x[526,1] 0
x[526,2] 1
x[527,0] 0
x[527,1] 0
x[527,2] 1
x[528,0] 1
x[528,1] 0
x[528,2] 0
x[529,0] 0
x[529,1] 0
x[529,2] 1
x[530,0] 0
x[530,1] 0
x[530,2] 1
x[531,0] 1
x[531,1] 0
x[531,2] 0
x[532,0] 0
x[532,1] 1
x[532,2] 0
x[533,0] 0
x[533,1] 1
x[533,2] 0
x[534,0] 0
x[534,1] 1
x[534,2] 0
x[535,0] 0
x[535,1] 1
x[535,2] 0
x[536,0] 0
x[536,1] 1
x[536,2] 0
x[537,0] 0
x[537,1] 1
x[537,2] 0
x[538,0] 1
x[538,1] 0
x[538,2] 0
x[539,0] 1
x[539,1] 0
x[539,2] 0
x[540,0] 1
x[540,1] 0
x[540,2] 0
x[541,0] 1
x[541,1] 0
x[541,2] 0
x[542,0] 1
x[542,1] 0
x[542,2] 0
x[543,0] 1
x[543,1] 0
x[543,2] 0
x[544,0] 1
x[544,1] 0
x[544,2] 0
x[545,0] 0
x[545,1] 0
x[545,2] 1
x[546,0] 1
x[546,1] 0
x[546,2] 0
x[547,0] 0
x[547,1] 1
x[547,2] 0
x[548,0] 1
x[548,1] 0
x[548,2] 0
x[549,0] 1
x[549,1] 0
x[549,2] 0
x[550,0] 0
x[550,1] 0
x[550,2] 1
x[551,0] 1
x[551,1] 0
x[551,2] 0
x[552,0] 0
x[552,1] 0
x[552,2] 1
x[553,0] 1
x[553,1] 0
x[553,2] 0
x[554,0] 0
x[554,1] 0
x[554,2] 1
x[555,0] 0
x[555,1] 0
x[555,2] 1
x[556,0] 0
x[556,1] 0
x[556,2] 1
x[557,0] 0
x[557,1] 0
x[557,2] 1
x[558,0] 0
x[558,1] 0
x[558,2] 1
x[559,0] 1
x[559,1] 0
x[559,2] 0
x[560,0] 1
x[560,1] 0
x[560,2] 0
x[561,0] 1
x[561,1] 0
x[561,2] 0
x[562,0] 1
x[562,1] 0
x[562,2] 0
x[563,0] 1
x[563,1] 0
x[563,2] 0
x[564,0] 1
x[564,1] 0
x[564,2] 0
x[565,0] 1
x[565,1] 0
x[565,2] 0
x[566,0] 1
x[566,1] 0
x[566,2] 0
x[567,0] 1
x[567,1] 0
x[567,2] 0
x[568,0] 1
x[568,1] 0
x[568,2] 0
x[569,0] 1
x[569,1] 0
x[569,2] 0
x[570,0] 1
x[570,1] 0
x[570,2] 0
x[571,0] 1
x[571,1] 0
x[571,2] 0
x[572,0] 1
x[572,1] 0
x[572,2] 0
x[573,0] 1
x[573,1] 0
x[573,2] 0
x[574,0] 1
x[574,1] 0
x[574,2] 0
x[575,0] 1
x[575,1] 0
x[575,2] 0
x[576,0] 1
x[576,1] 0
x[576,2] 0
x[577,0] 1
x[577,1] 0
x[577,2] 0
x[578,0] 1
x[578,1] 0
x[578,2] 0
x[579,0] 1
x[579,1] 0
x[579,2] 0
x[580,0] 1
x[580,1] 0
x[580,2] 0
x[581,0] 1
x[581,1] 0
x[581,2] 0
x[582,0] 1
x[582,1] 0
x[582,2] 0
x[583,0] 1
x[583,1] 0
x[583,2] 0
x[584,0] 1
x[584,1] 0
x[584,2] 0
x[585,0] 1
x[585,1] 0
x[585,2] 0
x[586,0] 1
x[586,1] 0
x[586,2] 0
x[587,0] 1
x[587,1] 0
x[587,2] 0
x[588,0] 1
x[588,1] 0
x[588,2] 0
x[589,0] 1
x[589,1] 0
x[589,2] 0
x[590,0] 0
x[590,1] 0
x[590,2] 1
x[591,0] 0
x[591,1] 0
x[591,2] 1
x[592,0] 0
x[592,1] 0
x[592,2] 1
x[593,0] 0
x[593,1] 0
x[593,2] 1
x[594,0] 1
x[594,1] 0
x[594,2] 0
x[595,0] 1
x[595,1] 0
x[595,2] 0
x[596,0] 1
x[596,1] 0
x[596,2] 0
x[597,0] 1
x[597,1] 0
x[597,2] 0
z[0,0,-1] 0
z[0,0,0] 1
z[0,0,1] 0
z[0,1,-1] 0
z[0,1,0] 0
z[0,1,1] 1
z[0,2,-1] 0
z[0,2,0] 1
z[0,2,1] 0
z[1,0,-1] 0
z[1,0,0] 1
z[1,0,1] 0
z[1,1,-1] 0
z[1,1,0] 0
z[1,1,1] 1
z[1,2,-1] 1
z[1,2,0] 0
z[1,2,1] 0
z[2,0,-1] 1
z[2,0,0] 0
z[2,0,1] 0
z[2,1,-1] 0
z[2,1,0] 0
z[2,1,1] 1
z[2,2,-1] 0
z[2,2,0] 1
z[2,2,1] 0
z[3,0,-1] 0
z[3,0,0] 1
z[3,0,1] 0
z[3,1,-1] 0
z[3,1,0] 0
z[3,1,1] 1
z[3,2,-1] 0
z[3,2,0] 1
z[3,2,1] 0
z[4,0,-1] 0
z[4,0,0] 1
z[4,0,1] 0
z[4,1,-1] 0
z[4,1,0] 0
z[4,1,1] 1
z[4,2,-1] 1
z[4,2,0] 0
z[4,2,1] 0
z[5,0,-1] 1
z[5,0,0] 0
z[5,0,1] 0
z[5,1,-1] 0
z[5,1,0] 0
z[5,1,1] 1
z[5,2,-1] 0
z[5,2,0] 1
z[5,2,1] 0
z[6,0,-1] 0
z[6,0,0] 1
z[6,0,1] 0
z[6,1,-1] 0
z[6,1,0] 0
z[6,1,1] 1
z[6,2,-1] 1
z[6,2,0] 0
z[6,2,1] 0
z[7,0,-1] 1
z[7,0,0] 0
z[7,0,1] 0
z[7,1,-1] 0
z[7,1,0] 0
z[7,1,1] 1
z[7,2,-1] 0
z[7,2,0] 1
z[7,2,1] 0
z[8,0,-1] 0
z[8,0,0] 1
z[8,0,1] 0
z[8,1,-1] 0
z[8,1,0] 0
z[8,1,1] 1
z[8,2,-1] 0
z[8,2,0] 1
z[8,2,1] 0
z[9,0,-1] 0
z[9,0,0] 1
z[9,0,1] 0
z[9,1,-1] 0
z[9,1,0] 0
z[9,1,1] 1
z[9,2,-1] 1
z[9,2,0] 0
z[9,2,1] 0
z[10,0,-1] 1
z[10,0,0] 0
z[10,0,1] 0
z[10,1,-1] 0
z[10,1,0] 0
z[10,1,1] 1
z[10,2,-1] 0
z[10,2,0] 1
z[10,2,1] 0
z[11,0,-1] 1
z[11,0,0] 0
z[11,0,1] 0
z[11,1,-1] 0
z[11,1,0] 1
z[11,1,1] 0
z[11,2,-1] 0
z[11,2,0] 0
z[11,2,1] 1
z[12,0,-1] 0
z[12,0,0] 1
z[12,0,1] 0
z[12,1,-1] 0
z[12,1,0] 1
z[12,1,1] 0
z[12,2,-1] 0
z[12,2,0] 0
z[12,2,1] 1
z[13,0,-1] 0
z[13,0,0] 1
z[13,0,1] 0
z[13,1,-1] 0
z[13,1,0] 1
z[13,1,1] 0
z[13,2,-1] 0
z[13,2,0] 0
z[13,2,1] 1
z[14,0,-1] 1
z[14,0,0] 0
z[14,0,1] 0
z[14,1,-1] 0
z[14,1,0] 1
z[14,1,1] 0
z[14,2,-1] 0
z[14,2,0] 0
z[14,2,1] 1
z[15,0,-1] 0
z[15,0,0] 0
z[15,0,1] 1
z[15,1,-1] 0
z[15,1,0] 1
z[15,1,1] 0
z[15,2,-1] 0
z[15,2,0] 1
z[15,2,1] 0
z[16,0,-1] 0
z[16,0,0] 0
z[16,0,1] 1
z[16,1,-1] 0
z[16,1,0] 1
z[16,1,1] 0
z[16,2,-1] 1
z[16,2,0] 0
z[16,2,1] 0
z[17,0,-1] 0
z[17,0,0] 0
z[17,0,1] 1
z[17,1,-1] 0
z[17,1,0] 1
z[17,1,1] 0
z[17,2,-1] 0
z[17,2,0] 1
z[17,2,1] 0
z[18,0,-1] 0
z[18,0,0] 1
z[18,0,1] 0
z[18,1,-1] 0
z[18,1,0] 1
z[18,1,1] 0
z[18,2,-1] 1
z[18,2,0] 0
z[18,2,1] 0
z[19,0,-1] 1
z[19,0,0] 0
z[19,0,1] 0
z[19,1,-1] 0
z[19,1,0] 1
z[19,1,1] 0
z[19,2,-1] 0
z[19,2,0] 1
z[19,2,1] 0
z[20,0,-1] 1
z[20,0,0] 0
z[20,0,1] 0
z[20,1,-1] 0
z[20,1,0] 1
z[20,1,1] 0
z[20,2,-1] 0
z[20,2,0] 0
z[20,2,1] 1
W[0,0,-1] 54
W[0,0,0] 560
W[0,0,1] 190
W[0,1,-1] 409
W[0,1,0] 14
W[0,1,1] 1407
W[0,2,-1] 194
W[0,2,0] 1058
W[0,2,1] 261
W[1,0,-1] 84
W[1,0,0] 533
W[1,0,1] 187
W[1,1,-1] 41
W[1,1,0] 47
W[1,1,1] 1742
W[1,2,-1] 1410
W[1,2,0] 44
W[1,2,1] 59
W[2,0,-1] 615
W[2,0,0] 135
W[2,0,1] 54
W[2,1,-1] 54
W[2,1,0] 43
W[2,1,1] 1733
W[2,2,-1] 277
W[2,2,0] 946
W[2,2,1] 290
W[3,0,-1] 111
W[3,0,0] 510
W[3,0,1] 183
W[3,1,-1] 40
W[3,1,0] 22
W[3,1,1] 1768
W[3,2,-1] 176
W[3,2,0] 1045
W[3,2,1] 292
W[4,0,-1] 119
W[4,0,0] 501
W[4,0,1] 184
W[4,1,-1] 38
W[4,1,0] 43
W[4,1,1] 1749
W[4,2,-1] 1315
W[4,2,0] 114
W[4,2,1] 84
W[5,0,-1] 560
W[5,0,0] 146
W[5,0,1] 98
W[5,1,-1] 28
W[5,1,0] 48
W[5,1,1] 1754
W[5,2,-1] 166
W[5,2,0] 1037
W[5,2,1] 310
W[6,0,-1] 93
W[6,0,0] 634
W[6,0,1] 77
W[6,1,-1] 66
W[6,1,0] 203
W[6,1,1] 1561
W[6,2,-1] 1429
W[6,2,0] 48
W[6,2,1] 36
W[7,0,-1] 657
W[7,0,0] 135
W[7,0,1] 12
W[7,1,-1] 130
W[7,1,0] 179
W[7,1,1] 1521
W[7,2,-1] 282
W[7,2,0] 996
W[7,2,1] 235
W[8,0,-1] 118
W[8,0,0] 616
W[8,0,1] 70
W[8,1,-1] 49
W[8,1,0] 193
W[8,1,1] 1588
W[8,2,-1] 181
W[8,2,0] 1090
W[8,2,1] 242
W[9,0,-1] 127
W[9,0,0] 601
W[9,0,1] 76
W[9,1,-1] 75
W[9,1,0] 179
W[9,1,1] 1576
W[9,2,-1] 1346
W[9,2,0] 107
W[9,2,1] 60
W[10,0,-1] 610
W[10,0,0] 165
W[10,0,1] 29
W[10,1,-1] 53
W[10,1,0] 200
W[10,1,1] 1577
W[10,2,-1] 175
W[10,2,0] 1080
W[10,2,1] 258
W[11,0,-1] 651
W[11,0,0] 135
W[11,0,1] 18
W[11,1,-1] 457
W[11,1,0] 1044
W[11,1,1] 329
W[11,2,-1] 55
W[11,2,0] 47
W[11,2,1] 1411
W[12,0,-1] 121
W[12,0,0] 608
W[12,0,1] 75
W[12,1,-1] 201
W[12,1,0] 1282
W[12,1,1] 347
W[12,2,-1] 36
W[12,2,0] 42
W[12,2,1] 1435
W[13,0,-1] 129
W[13,0,0] 605
W[13,0,1] 70
W[13,1,-1] 240
W[13,1,0] 1264
W[13,1,1] 326
W[13,2,-1] 480
W[13,2,0] 0
W[13,2,1] 1033
W[14,0,-1] 601
W[14,0,0] 166
W[14,0,1] 37
W[14,1,-1] 187
W[14,1,0] 1272
W[14,1,1] 371
W[14,2,-1] 44
W[14,2,0] 45
W[14,2,1] 1424
W[15,0,-1] 24
W[15,0,0] 133
W[15,0,1] 647
W[15,1,-1] 162
W[15,1,0] 1180
W[15,1,1] 488
W[15,2,-1] 144
W[15,2,0] 1077
W[15,2,1] 292
W[16,0,-1] 32
W[16,0,0] 131
W[16,0,1] 641
W[16,1,-1] 287
W[16,1,0] 1085
W[16,1,1] 458
W[16,2,-1] 1332
W[16,2,0] 114
W[16,2,1] 67
W[17,0,-1] 348
W[17,0,0] 0
W[17,0,1] 456
W[17,1,-1] 163
W[17,1,0] 1168
W[17,1,1] 499
W[17,2,-1] 160
W[17,2,0] 1055
W[17,2,1] 298
W[18,0,-1] 116
W[18,0,0] 573
W[18,0,1] 115
W[18,1,-1] 302
W[18,1,0] 1320
W[18,1,1] 208
W[18,2,-1] 1359
W[18,2,0] 120
W[18,2,1] 34
W[19,0,-1] 604
W[19,0,0] 148
W[19,0,1] 52
W[19,1,-1] 188
W[19,1,0] 1393
W[19,1,1] 249
W[19,2,-1] 168
W[19,2,0] 1142
W[19,2,1] 203
W[20,0,-1] 600
W[20,0,0] 142
W[20,0,1] 62
W[20,1,-1] 179
W[20,1,0] 1310
W[20,1,1] 341
W[20,2,-1] 41
W[20,2,0] 125
W[20,2,1] 1347
C[0,0] 244
C[0,1] 832
C[0,2] 455
C[1,0] 271
C[1,1] 129
C[1,2] 162
C[2,0] 243
C[2,1] 151
C[2,2] 567
C[3,0] 294
C[3,1] 102
C[3,2] 468
C[4,0] 303
C[4,1] 119
C[4,2] 282
C[5,0] 342
C[5,1] 104
C[5,2] 476
C[6,0] 170
C[6,1] 335
C[6,2] 120
C[7,0] 159
C[7,1] 439
C[7,2] 517
C[8,0] 188
C[8,1] 291
C[8,2] 423
C[9,0] 203
C[9,1] 329
C[9,2] 227
C[10,0] 223
C[10,1] 306
C[10,2] 433
C[11,0] 171
C[11,1] 786
C[11,2] 157
C[12,0] 196
C[12,1] 548
C[12,2] 114
C[13,0] 199
C[13,1] 566
C[13,2] 960
C[14,0] 240
C[14,1] 558
C[14,2] 133
C[15,0] 181
C[15,1] 650
C[15,2] 436
C[16,0] 195
C[16,1] 745
C[16,2] 248
C[17,0] 696
C[17,1] 662
C[17,2] 458
C[18,0] 231
C[18,1] 510
C[18,2] 188
C[19,0] 252
C[19,1] 437
C[19,2] 371
C[20,0] 266
C[20,1] 520
C[20,2] 207
n[0,0] 1
n[0,1] 0
n[0,2] 1
n[1,0] 1
n[1,1] 0
n[1,2] 1
n[2,0] 1
n[2,1] 1
n[2,2] 0
n[3,0] 0
n[3,1] 1
n[3,2] 1
n[4,0] 1
n[4,1] 1
n[4,2] 1
n[5,0] 1
n[5,1] 1
n[5,2] 0
n[6,0] 0
n[6,1] 1
n[6,2] 1
p[0,1,0] 0
p[0,1,1] 1
p[0,1,2] 0
p[0,2,0] 0
p[0,2,1] 1
p[0,2,2] 0
p[0,3,0] 0
p[0,3,1] 1
p[0,3,2] 0
p[0,4,0] 0
p[0,4,1] 1
p[0,4,2] 0
p[0,5,0] 0
p[0,5,1] 1
p[0,5,2] 0
p[0,6,0] 0
p[0,6,1] 1
p[0,6,2] 0
p[1,0,0] 0
p[1,0,1] 0
p[1,0,2] 0
p[1,2,0] 0
p[1,2,1] 1
p[1,2,2] 0
p[1,3,0] 0
p[1,3,1] 1
p[1,3,2] 0
p[1,4,0] 0
p[1,4,1] 1
p[1,4,2] 0
p[1,5,0] 0
p[1,5,1] 1
p[1,5,2] 0
p[1,6,0] 0
p[1,6,1] 1
p[1,6,2] 0
p[2,0,0] 0
p[2,0,1] 0
p[2,0,2] 1
p[2,1,0] 0
p[2,1,1] 0
p[2,1,2] 1
p[2,3,0] 0
p[2,3,1] 0
p[2,3,2] 1
p[2,4,0] 0
p[2,4,1] 0
p[2,4,2] 1
p[2,5,0] 0
p[2,5,1] 0
p[2,5,2] 1
p[2,6,0] 0
p[2,6,1] 0
p[2,6,2] 1
p[3,0,0] 1
p[3,0,1] 0
p[3,0,2] 0
p[3,1,0] 1
p[3,1,1] 0
p[3,1,2] 0
p[3,2,0] 1
p[3,2,1] 0
p[3,2,2] 0
p[3,4,0] 1
p[3,4,1] 0
p[3,4,2] 0
p[3,5,0] 1
p[3,5,1] 0
p[3,5,2] 0
p[3,6,0] 1
p[3,6,1] 0
p[3,6,2] 0
p[4,0,0] 0
p[4,0,1] 0
p[4,0,2] 0
p[4,1,0] 0
p[4,1,1] 0
p[4,1,2] 0
p[4,2,0] 0
p[4,2,1] 0
p[4,2,2] 0
p[4,3,0] 0
p[4,3,1] 0
p[4,3,2] 0
p[4,5,0] 0
p[4,5,1] 0
p[4,5,2] 0
p[4,6,0] 0
p[4,6,1] 0
p[4,6,2] 0
p[5,0,0] 0
p[5,0,1] 0
p[5,0,2] 1
p[5,1,0] 0
p[5,1,1] 0
p[5,1,2] 1
p[5,2,0] 0
p[5,2,1] 0
p[5,2,2] 0
p[5,3,0] 0
p[5,3,1] 0
p[5,3,2] 1
p[5,4,0] 0
p[5,4,1] 0
p[5,4,2] 1
p[5,6,0] 0
p[5,6,1] 0
p[5,6,2] 1
p[6,0,0] 1
p[6,0,1] 0
p[6,0,2] 0
p[6,1,0] 1
p[6,1,1] 0
p[6,1,2] 0
p[6,2,0] 1
p[6,2,1] 0
p[6,2,2] 0
p[6,3,0] 0
p[6,3,1] 0
p[6,3,2] 0
p[6,4,0] 1
p[6,4,1] 0
p[6,4,2] 0
p[6,5,0] 1
p[6,5,1] 0
p[6,5,2] 0
